
Gurobi 11.0.3 (mac64[rosetta2], gurobi_cl) logging started Wed Oct 16 11:20:45 2024

Set parameter Username
Set parameter LogFile to value "gurobi.log"
Using license file /Users/smuellerdott/gurobi.lic
Academic license - for non-commercial use only - expires 2025-10-02
